DATASET = "thpack7";
INSTANCE = "061";

WIDTH = 233;
HEIGHT = 220;
LENGTH = 587;

NO_OF_SHAPES = 20;
size = [|
  109,68,64 |
  84,58,55 |
  96,83,24 |
  74,67,37 |
  107,73,70 |
  80,73,54 |
  72,41,33 |
  84,79,74 |
  40,37,20 |
  74,73,42 |
  55,48,33 |
  109,74,70 |
  107,44,39 |
  99,51,47 |
  80,62,38 |
  46,43,37 |
  94,69,36 |
  98,64,48 |
  99,91,70 |
  113,76,52 |
|];

verticality = [|
  1,1,1 |
  1,1,1 |
  0,0,1 |
  0,1,1 |
  1,1,1 |
  1,1,1 |
  0,1,1 |
  1,1,1 |
  0,1,1 |
  1,1,1 |
  1,1,1 |
  1,1,1 |
  0,1,1 |
  0,1,1 |
  0,1,1 |
  1,1,1 |
  0,1,1 |
  0,1,1 |
  1,1,1 |
  0,1,1 |
|];

box_count = [
  1,
  6,
  2,
  3,
  5,
  6,
  4,
  7,
  3,
  5,
  8,
  5,
  7,
  5,
  6,
  4,
  6,
  5,
  6,
  6,
];
